\ Date: 1921.10
\ Cycle: 01
\ Solver: XA

\ objective function 
Maximize
+ 5.0 x
+ 5.0 y

\ constraint
Subject To
g0:  + x + y <= 100.0
gx2:  + x = 2.0
gy2:  + y = 2.0

\ dvar
Bounds

End




\ objective value:   20.0
